sat
(
  (define-fun MemProv6 () Int
    1350)
  (define-fun C1_VM5 () Int
    0)
  (define-fun VM3Type () Int
    24)
  (define-fun VM4Type () Int
    7)
  (define-fun C5_VM5 () Int
    1)
  (define-fun C4_VM1 () Int
    0)
  (define-fun MemProv3 () Int
    28350)
  (define-fun VM2Type () Int
    1)
  (define-fun ProcProv4 () Int
    1800)
  (define-fun VM1Type () Int
    7)
  (define-fun StorageProv5 () Int
    42000)
  (define-fun C5_VM6 () Int
    1)
  (define-fun ProcProv5 () Int
    900)
  (define-fun C5_VM1 () Int
    0)
  (define-fun C3_VM3 () Int
    0)
  (define-fun StorageProv2 () Int
    42000)
  (define-fun MemProv4 () Int
    3150)
  (define-fun C5_VM4 () Int
    1)
  (define-fun PriceProv1 () Int
    240)
  (define-fun VM6Type () Int
    1)
  (define-fun StorageProv4 () Int
    69000)
  (define-fun PriceProv6 () Int
    120)
  (define-fun PriceProv3 () Int
    1680)
  (define-fun C1_VM2 () Int
    0)
  (define-fun C5_VM3 () Int
    0)
  (define-fun ProcProv2 () Int
    900)
  (define-fun C2_VM2 () Int
    1)
  (define-fun C4_VM4 () Int
    0)
  (define-fun C4_VM6 () Int
    0)
  (define-fun MemProv1 () Int
    3150)
  (define-fun ProcProv3 () Int
    3600)
  (define-fun StorageProv6 () Int
    42000)
  (define-fun C2_VM4 () Int
    0)
  (define-fun C3_VM6 () Int
    0)
  (define-fun C3_VM4 () Int
    1)
  (define-fun C2_VM5 () Int
    1)
  (define-fun C3_VM5 () Int
    0)
  (define-fun MemProv2 () Int
    1350)
  (define-fun C2_VM3 () Int
    0)
  (define-fun ProcProv1 () Int
    1800)
  (define-fun C3_VM2 () Int
    0)
  (define-fun C2_VM1 () Int
    0)
  (define-fun C2_VM6 () Int
    1)
  (define-fun PriceProv4 () Int
    240)
  (define-fun C4_VM5 () Int
    0)
  (define-fun ProcProv6 () Int
    900)
  (define-fun C1_VM4 () Int
    0)
  (define-fun StorageProv1 () Int
    69000)
  (define-fun VM5Type () Int
    1)
  (define-fun C1_VM3 () Int
    0)
  (define-fun MemProv5 () Int
    1350)
  (define-fun PriceProv2 () Int
    120)
  (define-fun C4_VM2 () Int
    0)
  (define-fun C1_VM6 () Int
    0)
  (define-fun PriceProv5 () Int
    120)
  (define-fun C5_VM2 () Int
    1)
  (define-fun C4_VM3 () Int
    1)
  (define-fun StorageProv3 () Int
    87000)
  (define-fun C3_VM1 () Int
    0)
  (define-fun C1_VM1 () Int
    1)
)
(objectives
 ( 252)
 ((+ 0 PriceProv1 PriceProv2 PriceProv3 PriceProv4 PriceProv5 PriceProv6) 2520)
)
(:added-eqs                   277309
 :arith-eq-adapter            114994
 :arith-bound-propagations-lp 11959
 :arith-conflicts             47
 :arith-diseq                 341926
 :arith-fixed-eqs             3884
 :arith-lower                 454794
 :arith-make-feasible         67438
 :arith-max-columns           120
 :arith-max-rows              20
 :arith-upper                 328054
 :binary-propagations         1883415
 :conflicts                   7069
 :decisions                   132962
 :del-clause                  220084
 :final-checks                494
 :max-memory                  45.10
 :maxsat-cores                215
 :memory                      45.10
 :minimized-lits              26318
 :mk-bool-var                 107523
 :mk-clause                   221380
 :mk-clause-binary            3576
 :num-allocs                  721526818
 :num-checks                  781
 :pb-conflicts                1773
 :pb-predicates               318
 :pb-propagations             10239
 :pb-resolves                 1768
 :propagations                3024910
 :restarts                    15
 :rlimit-count                15890014
 :solve-eqs-elim-vars         1
 :solve-eqs-steps             10
 :time                        0.90
 :total-time                  0.90)
